%%%%%%%%%%%%%%%%%%%%%%%%%%%%%%%%%%%%%%%%%%%%%%%%%%%%%%%%%%%%%%%%%%%%%%%%%
%FILE DATA:	Soccer Computational Problem for MiniZinc Models
%AUTHORS:	Robinson Duque, Alejandro Arbelaez, Juan Francisco Díaz
%CONTACT:  	robinson.duque@correounivalle.edu.co 
%LAST UPDATE:	May, 2018 
%ROUND ROBIN:2
%TEAMS:20
%PRESENT FIXTURE:20
%FIXTURES TO PLAY:18
%GAMES TO PLAY:180
%%%%%%%%%%%%%%%%%%%%%%%%%%%%%%%%%%%%%%%%%%%%%%%%%%%%%%%%%%%%%%%%%%%%%%%%%
%Number of teams:
n=20;

%For the purpose of our models, we offer two representations of the games to play, namely fixtures and games to play:

%Fixtures to play:
%fixtures=[|0,1,1,0,1,1,1,1,1,1,1,1,1,1,1,1,1,1,1,1
%|1,0,1,1,1,1,1,0,1,1,1,1,1,1,1,1,1,1,1,1
%|1,1,0,1,1,1,1,1,0,1,1,1,1,1,1,1,1,1,1,1
%|0,1,1,0,1,1,1,1,1,1,1,1,1,1,1,1,1,1,1,1
%|1,1,1,1,0,1,0,1,1,1,1,1,1,1,1,1,1,1,1,1
%|1,1,1,1,1,0,1,1,1,0,1,1,1,1,1,1,1,1,1,1
%|1,1,1,1,0,1,0,1,1,1,1,1,1,1,1,1,1,1,1,1
%|1,0,1,1,1,1,1,0,1,1,1,1,1,1,1,1,1,1,1,1
%|1,1,0,1,1,1,1,1,0,1,1,1,1,1,1,1,1,1,1,1
%|1,1,1,1,1,0,1,1,1,0,1,1,1,1,1,1,1,1,1,1
%|1,1,1,1,1,1,1,1,1,1,0,1,0,1,1,1,1,1,1,1
%|1,1,1,1,1,1,1,1,1,1,1,0,1,0,1,1,1,1,1,1
%|1,1,1,1,1,1,1,1,1,1,0,1,0,1,1,1,1,1,1,1
%|1,1,1,1,1,1,1,1,1,1,1,0,1,0,1,1,1,1,1,1
%|1,1,1,1,1,1,1,1,1,1,1,1,1,1,0,1,1,0,1,1
%|1,1,1,1,1,1,1,1,1,1,1,1,1,1,1,0,1,1,1,0
%|1,1,1,1,1,1,1,1,1,1,1,1,1,1,1,1,0,1,0,1
%|1,1,1,1,1,1,1,1,1,1,1,1,1,1,0,1,1,0,1,1
%|1,1,1,1,1,1,1,1,1,1,1,1,1,1,1,1,0,1,0,1
%|1,1,1,1,1,1,1,1,1,1,1,1,1,1,1,0,1,1,1,0|];

%Played Fixtures:
%PlayedFixtures=[|0,1,1,2,1,1,1,1,1,1,1,1,1,1,1,1,1,1,1,1
%|1,0,1,1,1,1,1,2,1,1,1,1,1,1,1,1,1,1,1,1
%|1,1,0,1,1,1,1,1,2,1,1,1,1,1,1,1,1,1,1,1
%|2,1,1,0,1,1,1,1,1,1,1,1,1,1,1,1,1,1,1,1
%|1,1,1,1,0,1,2,1,1,1,1,1,1,1,1,1,1,1,1,1
%|1,1,1,1,1,0,1,1,1,2,1,1,1,1,1,1,1,1,1,1
%|1,1,1,1,2,1,0,1,1,1,1,1,1,1,1,1,1,1,1,1
%|1,2,1,1,1,1,1,0,1,1,1,1,1,1,1,1,1,1,1,1
%|1,1,2,1,1,1,1,1,0,1,1,1,1,1,1,1,1,1,1,1
%|1,1,1,1,1,2,1,1,1,0,1,1,1,1,1,1,1,1,1,1
%|1,1,1,1,1,1,1,1,1,1,0,1,2,1,1,1,1,1,1,1
%|1,1,1,1,1,1,1,1,1,1,1,0,1,2,1,1,1,1,1,1
%|1,1,1,1,1,1,1,1,1,1,2,1,0,1,1,1,1,1,1,1
%|1,1,1,1,1,1,1,1,1,1,1,2,1,0,1,1,1,1,1,1
%|1,1,1,1,1,1,1,1,1,1,1,1,1,1,0,1,1,2,1,1
%|1,1,1,1,1,1,1,1,1,1,1,1,1,1,1,0,1,1,1,2
%|1,1,1,1,1,1,1,1,1,1,1,1,1,1,1,1,0,1,2,1
%|1,1,1,1,1,1,1,1,1,1,1,1,1,1,2,1,1,0,1,1
%|1,1,1,1,1,1,1,1,1,1,1,1,1,1,1,1,2,1,0,1
%|1,1,1,1,1,1,1,1,1,1,1,1,1,1,1,2,1,1,1,0|];

%Games to play:
games=[|2,1|3,1|3,2|4,2|4,3|5,1|5,2|5,3|5,4|6,1|6,2|6,3|6,4|6,5|7,1|7,2|7,3|7,4|7,6|8,1|8,3|8,4|8,5|8,6|8,7|9,1|9,2|9,4|9,5|9,6|9,7|9,8|10,1|10,2|10,3|10,4|10,5|10,7|10,8|10,9|11,1|11,2|11,3|11,4|11,5|11,6|11,7|11,8|11,9|11,10|12,1|12,2|12,3|12,4|12,5|12,6|12,7|12,8|12,9|12,10|12,11|13,1|13,2|13,3|13,4|13,5|13,6|13,7|13,8|13,9|13,10|13,12|14,1|14,2|14,3|14,4|14,5|14,6|14,7|14,8|14,9|14,10|14,11|14,13|15,1|15,2|15,3|15,4|15,5|15,6|15,7|15,8|15,9|15,10|15,11|15,12|15,13|15,14|16,1|16,2|16,3|16,4|16,5|16,6|16,7|16,8|16,9|16,10|16,11|16,12|16,13|16,14|16,15|17,1|17,2|17,3|17,4|17,5|17,6|17,7|17,8|17,9|17,10|17,11|17,12|17,13|17,14|17,15|17,16|18,1|18,2|18,3|18,4|18,5|18,6|18,7|18,8|18,9|18,10|18,11|18,12|18,13|18,14|18,16|18,17|19,1|19,2|19,3|19,4|19,5|19,6|19,7|19,8|19,9|19,10|19,11|19,12|19,13|19,14|19,15|19,16|19,18|20,1|20,2|20,3|20,4|20,5|20,6|20,7|20,8|20,9|20,10|20,11|20,12|20,13|20,14|20,15|20,17|20,18|20,19|];

%Played Games:
%PlayedGames=[|2,1|3,1|3,2|4,1|4,1|4,2|4,3|5,1|5,2|5,3|5,4|6,1|6,2|6,3|6,4|6,5|7,1|7,2|7,3|7,4|7,5|7,5|7,6|8,1|8,2|8,2|8,3|8,4|8,5|8,6|8,7|9,1|9,2|9,3|9,3|9,4|9,5|9,6|9,7|9,8|10,1|10,2|10,3|10,4|10,5|10,6|10,6|10,7|10,8|10,9|11,1|11,2|11,3|11,4|11,5|11,6|11,7|11,8|11,9|11,10|12,1|12,2|12,3|12,4|12,5|12,6|12,7|12,8|12,9|12,10|12,11|13,1|13,2|13,3|13,4|13,5|13,6|13,7|13,8|13,9|13,10|13,11|13,11|13,12|14,1|14,2|14,3|14,4|14,5|14,6|14,7|14,8|14,9|14,10|14,11|14,12|14,12|14,13|15,1|15,2|15,3|15,4|15,5|15,6|15,7|15,8|15,9|15,10|15,11|15,12|15,13|15,14|16,1|16,2|16,3|16,4|16,5|16,6|16,7|16,8|16,9|16,10|16,11|16,12|16,13|16,14|16,15|17,1|17,2|17,3|17,4|17,5|17,6|17,7|17,8|17,9|17,10|17,11|17,12|17,13|17,14|17,15|17,16|18,1|18,2|18,3|18,4|18,5|18,6|18,7|18,8|18,9|18,10|18,11|18,12|18,13|18,14|18,15|18,15|18,16|18,17|19,1|19,2|19,3|19,4|19,5|19,6|19,7|19,8|19,9|19,10|19,11|19,12|19,13|19,14|19,15|19,16|19,17|19,17|19,18|20,1|20,2|20,3|20,4|20,5|20,6|20,7|20,8|20,9|20,10|20,11|20,12|20,13|20,14|20,15|20,16|20,16|20,17|20,18|20,19|];

%Played Games - Win Results:
%% 0  0  0  0  0  0  0  0  0  0  0  0  0  0  0  1  0  0  0  0
%% 0  0  0  0  0  0  0  0  1  0  0  0  0  0  0  0  0  0  0  0
%% 1  0  0  0  1  1  1  0  0  0  0  1  0  0  0  1  0  0  1  1
%% 0  0  0  0  0  0  0  0  1  0  0  0  0  0  1  0  0  0  0  0
%% 0  1  0  0  0  0  0  0  1  0  0  0  0  0  1  0  0  0  0  0
%% 1  1  0  1  0  0  0  0  0  0  0  0  0  0  0  1  0  0  0  1
%% 0  1  0  0  0  0  0  0  0  0  0  0  0  1  0  0  0  1  0  1
%% 0  0  1  1  0  1  1  0  0  1  0  0  0  0  0  1  0  1  1  0
%% 0  0  0  0  0  0  0  0  0  0  1  0  0  0  0  0  0  0  0  0
%% 0  0  0  0  0  0  0  0  0  0  0  0  0  0  1  0  0  0  0  0
%% 0  0  0  0  0  0  0  0  0  0  0  0  0  0  0  0  0  0  0  0
%% 1  1  0  0  0  1  1  0  0  0  0  0  0  0  1  0  0  0  1  1
%% 1  0  0  1  0  1  1  1  0  1  0  0  0  0  1  1  0  1  1  1
%% 1  0  0  0  1  0  0  0  1  1  1  0  0  0  0  1  0  0  0  0
%% 0  1  0  0  0  0  0  0  0  0  1  0  0  0  0  0  0  0  0  0
%% 0  0  0  1  0  0  0  0  0  0  0  0  0  0  0  0  0  0  0  0
%% 1  0  0  1  1  0  0  1  0  1  0  1  1  1  0  1  0  1  0  1
%% 1  0  0  0  1  0  0  0  0  0  0  0  0  1  0  0  0  0  0  1
%% 1  0  0  0  0  0  0  0  1  1  0  0  0  1  0  1  0  0  0  0
%% 0  0  0  0  0  0  0  0  0  0  1  0  0  0  0  0  0  0  0  0
%Played Games - Tie Results:
%% 0  1  0  2  1  0  1  1  1  1  1  0  0  0  1  0  0  0  0  1
%% 1  0  1  1  0  0  0  2  0  1  1  0  1  1  0  1  1  1  1  1
%% 0  1  0  1  0  0  0  0  2  1  1  0  1  1  1  0  1  1  0  0
%% 2  1  1  0  1  0  1  0  0  1  1  1  0  1  0  0  0  1  1  1
%% 1  0  0  1  0  1  2  1  0  1  1  1  1  0  0  1  0  0  1  1
%% 0  0  0  0  1  0  1  0  1  2  1  0  0  1  1  0  1  1  1  0
%% 1  0  0  1  2  1  0  0  1  1  1  0  0  0  1  1  1  0  1  0
%% 1  2  0  0  1  0  0  0  1  0  1  1  0  1  1  0  0  0  0  1
%% 1  0  2  0  0  1  1  1  0  1  0  1  1  0  1  1  1  1  0  1
%% 1  1  1  1  1  2  1  0  1  0  1  1  0  0  0  1  0  1  0  1
%% 1  1  1  1  1  1  1  1  0  1  0  1  2  0  0  1  1  1  1  0
%% 0  0  0  1  1  0  0  1  1  1  1  0  1  2  0  1  0  1  0  0
%% 0  1  1  0  1  0  0  0  1  0  2  1  0  1  0  0  0  0  0  0
%% 0  1  1  1  0  1  0  1  0  0  0  2  1  0  1  0  0  0  0  1
%% 1  0  1  0  0  1  1  1  1  0  0  0  0  1  0  1  1  2  1  1
%% 0  1  0  0  1  0  1  0  1  1  1  1  0  0  1  0  0  1  0  2
%% 0  1  1  0  0  1  1  0  1  0  1  0  0  0  1  0  0  0  2  0
%% 0  1  1  1  0  1  0  0  1  1  1  1  0  0  2  1  0  0  1  0
%% 0  1  0  1  1  1  1  0  0  0  1  0  0  0  1  0  2  1  0  1
%% 1  1  0  1  1  0  0  1  1  1  0  0  0  1  1  2  0  0  1  0
%Played Games - Lose Results:
%% 0  0  1  0  0  1  0  0  0  0  0  1  1  1  0  0  1  1  1  0
%% 0  0  0  0  1  1  1  0  0  0  0  1  0  0  1  0  0  0  0  0
%% 0  0  0  0  0  0  0  1  0  0  0  0  0  0  0  0  0  0  0  0
%% 0  0  0  0  0  1  0  1  0  0  0  0  1  0  0  1  1  0  0  0
%% 0  0  1  0  0  0  0  0  0  0  0  0  0  1  0  0  1  1  0  0
%% 0  0  1  0  0  0  0  1  0  0  0  1  1  0  0  0  0  0  0  0
%% 0  0  1  0  0  0  0  1  0  0  0  1  1  0  0  0  0  0  0  0
%% 0  0  0  0  0  0  0  0  0  0  0  0  1  0  0  0  1  0  0  0
%% 0  1  0  1  1  0  0  0  0  0  0  0  0  1  0  0  0  0  1  0
%% 0  0  0  0  0  0  0  1  0  0  0  0  1  1  0  0  1  0  1  0
%% 0  0  0  0  0  0  0  0  1  0  0  0  0  1  1  0  0  0  0  1
%% 0  0  1  0  0  0  0  0  0  0  0  0  0  0  0  0  1  0  0  0
%% 0  0  0  0  0  0  0  0  0  0  0  0  0  0  0  0  1  0  0  0
%% 0  0  0  0  0  0  1  0  0  0  0  0  0  0  0  0  1  1  1  0
%% 0  0  0  1  1  0  0  0  0  1  0  1  1  0  0  0  0  0  0  0
%% 1  0  1  0  0  1  0  1  0  0  0  0  1  1  0  0  1  0  1  0
%% 0  0  0  0  0  0  0  0  0  0  0  0  0  0  0  0  0  0  0  0
%% 0  0  0  0  0  0  1  1  0  0  0  0  1  0  0  0  1  0  0  0
%% 0  0  1  0  0  0  0  1  0  0  0  1  1  0  0  0  0  0  0  0
%% 0  0  1  0  0  1  1  0  0  0  0  1  1  0  0  0  1  1  0  0

%%Initial points:
iPoints=[14, 17, 35, 19, 22, 26, 24, 34, 17, 17, 16, 32, 41, 28, 19, 14, 42, 24, 26, 15];

%%Initial positions:
%iPositions=[20, 16, 3, 13, 11, 8, 10, 4, 15, 14, 17, 5, 2, 6, 12, 19, 1, 9, 7, 18];

%%Position Constraints:
%numberPositionConstraints=1;

%%Total Fixtures:
%totalFixtures=38;

%%Fixtures to Play:
%fixturesToPlay=18;

%%Position Constraints Built With
%wantedPoints=[0, 0, 0, 3, 0, 0, 0, 0, 3, 0, 3, 0, 1, 3, 1, 1, 1, 1, 0, 0, 0, 3, 0, 1, 3, 1, 3, 0, 0, 3, 3, 0, 0, 3, 0, 0, 3, 1, 1, 3, 1, 1, 1, 3, 1, 3, 0, 1, 1, 3, 1, 0, 3, 0, 0, 3, 1, 0, 0, 0, 3, 1, 0, 3, 3, 0, 3, 1, 0, 0, 1, 0, 3, 3, 1, 1, 0, 0, 1, 1, 0, 1, 1, 0, 3, 0, 3, 1, 3, 1, 0, 3, 3, 1, 1, 0, 1, 1, 3, 0, 0, 3, 0, 1, 1, 3, 1, 1, 1, 1, 0, 3, 3, 0, 0, 1, 0, 0, 0, 3, 0, 0, 1, 3, 0, 3, 0, 3, 0, 3, 1, 3, 3, 3, 1, 1, 0, 0, 3, 3, 3, 0, 3, 3, 1, 0, 1, 0, 3, 3, 1, 3, 0, 1, 3, 0, 1, 1, 1, 1, 1, 1, 3, 3, 1, 1, 1, 3, 3, 0, 3, 0, 0, 3, 3, 3, 1, 1, 0, 0];

%POSITION CONSTRAINTS
%%[|teamID, operator, position|...]
%%operators index:
%%%1 for =  operator
%%%2 for >  operator
%%%3 for >= operator
%%%4 for <  operator
%%%5 for <= operator

positionConstraints=[|10,1,18|];

%SCORE VECTOR CONSTRAINTS
%%[|teamID, operator, wantedPoints|...]
%%operators index:
%%%1 for =  operator
%%%2 for >  operator
%%%3 for >= operator
%%%4 for <  operator
%%%5 for <= operator

%scoreVectorConstraints=[|10,1,39|];

%Instance Features:
%features=T,FP,TF,C,C/T,C/TF,FP/TF,FP/T,FP*C/T,FP*T/C,(C/T)*(FP/TF),Distance,Distance/C,Distance/T,Distance/(C*T)
%values=20,18,38,1,0.05,0.02631578947368421,0.4736842105263158,0.9,0.9,360.0,0.02368421052631579,4,4.0,0.2,0.2



gamesOfEveryTeam=[18,18,18,18,18,18,18,18,18,18,18,18,18,18,18,18,18,18,18,18];
weights=[|50,26,0,24|6,50,0,44|59,3,0,38|73,7,0,20|44,33,0,23|58,18,0,24|75,17,0,8|37,21,0,42|84,11,0,5|70,13,0,17|90,4,0,6|47,2,0,51|38,43,0,19|49,6,0,45|6,25,0,69|35,39,0,26|99,0,0,1|68,5,0,27|87,10,0,3|65,18,0,17|30,12,0,58|65,31,0,4|17,61,0,22|28,51,0,21|66,18,0,16|5,70,0,25|26,16,0,58|36,57,0,7|77,11,0,12|1,92,0,7|97,1,0,2|8,8,0,84|99,0,0,1|82,16,0,2|88,5,0,7|20,41,0,39|20,36,0,44|48,18,0,34|36,5,0,59|24,49,0,27|25,65,0,10|38,24,0,38|99,1,0,0|53,34,0,13|71,16,0,13|21,9,0,70|55,29,0,16|69,21,0,10|84,1,0,15|44,33,0,23|13,5,0,82|1,13,0,86|27,3,0,70|42,30,0,28|84,4,0,12|32,62,0,6|86,12,0,2|45,28,0,27|38,57,0,5|66,26,0,8|50,23,0,27|38,37,0,25|4,68,0,28|40,29,0,31|62,0,0,38|3,65,0,32|32,46,0,22|66,2,0,32|81,18,0,1|31,29,0,40|70,27,0,3|63,31,0,6|36,30,0,34|6,28,0,66|83,11,0,6|85,5,0,10|19,9,0,72|47,32,0,21|91,3,0,6|12,77,0,11|94,3,0,3|95,4,0,1|44,9,0,47|33,55,0,12|54,12,0,34|9,87,0,4|93,7,0,0|37,57,0,6|74,14,0,12|76,24,0,0|23,37,0,40|60,4,0,36|67,27,0,6|15,26,0,59|14,12,0,74|87,0,0,13|79,15,0,6|66,15,0,19|84,12,0,4|73,23,0,4|91,5,0,4|34,63,0,3|93,0,0,7|19,31,0,50|95,3,0,2|83,3,0,14|21,55,0,24|65,5,0,30|32,57,0,11|24,5,0,71|35,61,0,4|24,67,0,9|93,6,0,1|64,9,0,27|69,12,0,19|71,14,0,15|14,30,0,56|6,54,0,40|61,28,0,11|70,9,0,21|58,16,0,26|17,54,0,29|83,7,0,10|16,82,0,2|53,25,0,22|36,0,0,64|75,2,0,23|88,9,0,3|4,61,0,35|97,2,0,1|14,83,0,3|91,8,0,1|86,6,0,8|62,19,0,19|99,1,0,0|92,0,0,8|63,7,0,30|19,0,0,81|90,2,0,8|4,13,0,83|60,30,0,10|69,17,0,14|82,2,0,16|37,61,0,2|15,34,0,51|66,30,0,4|32,67,0,1|100,0,0,0|49,7,0,44|19,18,0,63|87,5,0,8|100,0,0,0|42,22,0,36|4,61,0,35|78,20,0,2|3,21,0,76|66,21,0,13|19,74,0,7|62,36,0,2|77,23,0,0|59,7,0,34|3,9,0,88|84,3,0,13|35,36,0,29|59,38,0,3|3,3,0,94|35,11,0,54|5,6,0,89|93,0,0,7|47,11,0,42|77,4,0,19|86,1,0,13|2,54,0,44|49,20,0,31|81,3,0,16|87,13,0,0|50,33,0,17|8,90,0,2|8,78,0,14|47,28,0,25|];